p tw 112 686
1 2
1 3
1 4
1 5
1 15
2 43
2 57
2 77
3 5
3 76
4 5
4 49
4 107
5 62
6 7
6 26
6 101
7 49
7 61
7 85
7 109
7 110
8 25
8 53
8 101
9 12
9 14
9 15
9 21
10 11
10 13
10 15
10 17
10 20
10 23
11 13
11 15
11 18
11 20
11 22
12 13
12 15
12 16
12 23
12 55
12 104
13 15
13 21
14 15
14 17
15 16
15 17
15 18
15 19
15 20
15 21
15 22
15 23
15 30
15 47
15 74
16 19
16 22
17 19
17 21
17 22
18 20
18 21
18 22
19 20
19 21
21 22
21 23
22 23
22 107
23 31
24 33
24 39
24 49
25 27
25 53
26 27
26 101
27 28
27 57
27 73
28 30
28 57
29 63
29 100
29 112
30 55
30 106
31 32
31 35
31 38
31 39
31 45
31 47
31 48
32 36
32 38
32 40
32 41
32 45
32 46
32 47
33 34
33 37
33 45
33 47
33 49
34 37
34 43
34 45
34 46
34 47
35 39
35 40
35 43
35 46
35 47
36 38
36 47
37 39
37 40
37 43
37 47
38 39
38 43
38 45
38 47
39 42
39 43
39 45
39 46
39 47
39 48
40 47
40 48
41 45
41 47
42 45
42 49
43 46
43 48
43 57
44 46
44 48
44 77
45 46
45 47
45 48
46 47
46 48
46 100
46 110
47 48
47 74
47 108
48 89
49 50
49 52
49 58
49 60
49 64
49 67
49 72
49 74
49 94
49 96
49 102
49 103
49 107
49 109
50 51
50 54
50 58
50 62
50 63
50 64
50 65
50 71
50 75
50 80
50 81
50 82
50 83
50 84
50 86
50 96
50 103
51 56
51 59
51 60
51 66
51 67
51 69
51 71
51 73
51 77
51 79
51 81
51 82
51 83
51 86
51 89
51 92
51 96
51 97
51 102
52 54
52 58
52 59
52 63
52 70
52 75
52 77
52 81
52 82
52 89
52 93
52 99
52 102
53 54
53 55
53 56
53 59
53 62
53 63
53 64
53 72
53 74
53 79
53 87
53 89
53 90
53 91
53 92
53 96
53 97
53 100
53 101
53 102
53 104
54 56
54 57
54 58
54 59
54 63
54 67
54 69
54 71
54 73
54 76
54 77
54 80
54 86
54 89
54 91
54 93
54 95
54 96
54 97
54 99
54 102
54 103
55 56
55 59
55 60
55 62
55 68
55 74
55 76
55 79
55 81
55 87
55 92
55 104
55 106
55 107
56 61
56 62
56 67
56 68
56 73
56 74
56 76
56 80
56 81
56 82
56 83
56 87
56 95
56 96
56 98
56 103
57 58
57 59
57 60
57 61
57 63
57 65
57 66
57 67
57 69
57 71
57 73
57 74
57 75
57 78
57 83
57 84
57 86
57 90
57 91
57 92
57 97
57 99
57 100
57 103
58 63
58 67
58 71
58 86
58 93
58 94
58 97
58 98
58 100
58 103
59 64
59 71
59 73
59 75
59 76
59 77
59 80
59 87
59 89
59 90
59 96
59 101
60 62
60 65
60 66
60 67
60 68
60 70
60 72
60 75
60 76
60 77
60 79
60 80
60 81
60 82
60 83
60 90
60 92
60 94
60 95
60 96
60 99
60 101
60 103
61 64
61 74
61 75
61 77
61 78
61 80
61 81
61 82
61 83
61 88
61 89
61 90
61 91
61 97
61 98
61 100
62 63
62 64
62 66
62 67
62 68
62 69
62 71
62 73
62 74
62 76
62 78
62 84
62 85
62 87
62 88
62 91
62 92
62 94
62 96
62 97
62 98
62 99
62 100
62 101
62 103
62 111
63 65
63 66
63 67
63 68
63 70
63 72
63 74
63 77
63 81
63 83
63 87
63 88
63 89
63 91
63 92
63 93
63 95
63 96
63 97
63 99
63 100
63 101
63 102
63 112
64 66
64 70
64 71
64 78
64 80
64 82
64 87
64 90
64 92
64 93
64 94
64 97
64 102
64 103
65 67
65 71
65 75
65 76
65 80
65 82
65 84
65 85
65 86
65 89
65 91
65 93
65 99
65 102
66 68
66 69
66 75
66 80
66 81
66 82
66 83
66 84
66 100
67 68
67 70
67 71
67 72
67 77
67 78
67 81
67 84
67 85
67 97
67 98
67 100
67 102
67 103
68 71
68 72
68 73
68 75
68 83
68 85
68 87
68 89
68 92
68 93
68 94
68 100
69 77
69 78
69 80
69 84
69 91
69 94
69 96
69 97
69 103
69 112
70 78
70 79
70 80
70 82
70 85
70 89
70 90
70 91
70 92
70 95
70 96
70 97
70 101
70 102
71 72
71 73
71 76
71 79
71 80
71 82
71 85
71 86
71 88
71 94
72 78
72 79
72 86
72 96
72 97
72 102
72 103
73 74
73 75
73 79
73 82
73 83
73 85
73 86
73 87
73 92
73 94
73 97
73 101
73 102
74 76
74 77
74 80
74 81
74 85
74 94
74 100
74 101
74 102
74 103
75 76
75 81
75 82
75 84
75 89
75 96
75 98
75 100
75 103
76 85
76 90
76 92
76 97
76 99
76 100
77 80
77 81
77 82
77 85
77 91
77 93
77 94
77 98
77 102
78 87
78 90
78 92
78 98
78 103
79 80
79 81
79 84
79 86
79 89
79 96
80 81
80 82
80 86
80 89
80 100
80 101
80 102
80 108
80 111
81 82
81 86
81 98
81 99
82 83
82 87
82 90
82 91
82 100
82 102
82 103
83 87
83 93
83 95
83 101
84 86
84 89
84 95
84 96
84 100
84 103
85 93
85 96
85 98
85 100
85 101
85 103
85 105
85 109
86 87
86 89
86 90
86 92
86 96
86 97
86 98
86 100
86 103
87 92
87 97
87 98
87 99
87 101
88 90
88 91
88 97
88 98
88 101
89 91
89 92
89 95
89 97
89 100
89 101
89 102
90 91
90 99
90 100
90 102
91 93
91 95
91 97
91 98
91 101
91 102
92 93
92 97
92 100
94 103
95 96
95 102
96 97
97 102
98 101
98 103
100 103
100 110
101 102
101 103
102 103
105 106
105 109
108 111
